c max 121  123  124  125  138  140  141  142  143  144  145  146  147  148  149  150  154  155 0
c ind 251  252  255  256  259  260  263  264  265  268  269  272  273  274  277  278  281  282  285  286  288  289  290 0
c This is a CNF SAT formula in the DIMACS CNF format,
c produced with the bc2cnf translator by Tommi Junttila;
c see http://users.ics.aalto.fi/tjunttil/circuits/index.html
c phi_Gamma_det <-> 1
c phi_Gamma <-> 1
c phi_T_transitions <-> 1
c phi_T <-> 1
c phi_sim_leaves <-> 1
c phi_sim_transition <-> 1
c phi_sim <-> 1
c FORMULA <-> 1
c pi_0 <-> 2
c pi_Class_2 <-> 67
c phi_T_transitions_consistency <-> 68
c tau_0_3_Class_3 <-> 121
c tau_0_3_Class_2 <-> 123
c tau_0_3_Class_1 <-> 124
c tau_0_3_Class_0 <-> 125
c tau_0_2_Class_3 <-> 138
c tau_0_2_Class_2 <-> 140
c tau_0_2_Class_1 <-> 141
c tau_0_2_Class_0 <-> 142
c tau_0_1_Class_3 <-> 143
c tau_0_1_Class_2 <-> 144
c tau_0_1_Class_1 <-> 145
c tau_0_1_Class_0 <-> 146
c tau_0_0_Class_3 <-> 147
c tau_0_0_Class_2 <-> 148
c tau_0_0_Class_1 <-> 149
c tau_0_0_Class_0 <-> 150
c phi_T_feature_det <-> 151
c lam_0_median_income <-> 154
c lam_0_population <-> 155
c phi_Gamma_val <-> 249
c median_income_P694 <-> 251
c population_P131700 <-> 252
c median_income_P531 <-> 255
c population_P2669100 <-> 256
c median_income_P970 <-> 259
c population_P2946500 <-> 260
c pi_Class_0 <-> 263
c Class_P0 <-> 263
c median_income_P579 <-> 264
c population_P2620900 <-> 265
c median_income_P1390 <-> 268
c population_P3126400 <-> 269
c pi_Class_3 <-> 272
c Class_P300 <-> 272
c median_income_P385 <-> 273
c population_P150000 <-> 274
c median_income_P69 <-> 277
c population_P686000 <-> 278
c median_income_P967 <-> 281
c population_P1884100 <-> 282
c median_income_P202 <-> 285
c population_P1617500 <-> 286
c pi_Class_1 <-> 288
c Class_P100 <-> 288
c median_income_P1160 <-> 289
c population_P964600 <-> 290
p cnf 290 769
1 0
2 -3 0
2 -10 0
-2 10 3 0
2 0
-3 4 0
-3 42 0
3 -42 -4 0
-4 5 0
-4 154 0
4 -154 -5 0
5 -6 0
5 -50 0
-5 50 6 0
6 -7 0
6 -61 0
-6 61 7 0
7 -8 0
7 -65 0
-7 65 8 0
8 -9 0
8 -51 0
-8 51 9 0
9 -27 0
9 -38 0
-9 38 27 0
10 -11 0
10 -16 0
-10 16 11 0
-11 12 0
-11 53 0
11 -53 -12 0
-12 13 0
-12 154 0
12 -154 -13 0
13 -14 0
13 -63 0
-13 63 14 0
14 -15 0
14 -66 0
-14 66 15 0
15 -26 0
15 -39 0
-15 39 26 0
16 -17 0
16 -28 0
-16 28 17 0
-17 18 0
-17 24 0
17 -24 -18 0
-18 19 0
-18 20 0
18 -20 -19 0
19 121 0
19 -272 0
-19 272 -121 0
-20 -123 0
-20 21 0
20 -21 123 0
-21 22 0
-21 23 0
21 -23 -22 0
22 124 0
22 -288 0
-22 288 -124 0
23 125 0
23 -263 0
-23 263 -125 0
-24 25 0
-24 155 0
24 -155 -25 0
25 -26 0
25 -27 0
-25 27 26 0
-26 281 0
-26 282 0
26 -282 -281 0
-27 285 0
-27 286 0
27 -286 -285 0
28 -29 0
28 -40 0
-28 40 29 0
-29 30 0
-29 36 0
29 -36 -30 0
-30 31 0
-30 32 0
30 -32 -31 0
31 138 0
31 -272 0
-31 272 -138 0
-32 -140 0
-32 33 0
32 -33 140 0
-33 34 0
-33 35 0
33 -35 -34 0
34 141 0
34 -288 0
-34 288 -141 0
35 142 0
35 -263 0
-35 263 -142 0
-36 37 0
-36 155 0
36 -155 -37 0
37 -38 0
37 -39 0
-37 39 38 0
-38 277 0
-38 278 0
38 -278 -277 0
-39 289 0
-39 290 0
39 -290 -289 0
40 -41 0
40 -52 0
-40 52 41 0
-41 42 0
-41 48 0
41 -48 -42 0
-42 43 0
-42 44 0
42 -44 -43 0
43 143 0
43 -272 0
-43 272 -143 0
-44 -144 0
-44 45 0
44 -45 144 0
-45 46 0
-45 47 0
45 -47 -46 0
46 145 0
46 -288 0
-46 288 -145 0
47 146 0
47 -263 0
-47 263 -146 0
-48 49 0
-48 155 0
48 -155 -49 0
49 -50 0
49 -51 0
-49 51 50 0
-50 251 0
-50 252 0
50 -252 -251 0
-51 273 0
-51 274 0
51 -274 -273 0
-52 53 0
-52 59 0
52 -59 -53 0
-53 54 0
-53 55 0
53 -55 -54 0
54 147 0
54 -272 0
-54 272 -147 0
-55 -148 0
-55 56 0
55 -56 148 0
-56 57 0
-56 58 0
56 -58 -57 0
57 149 0
57 -288 0
-57 288 -149 0
58 150 0
58 -263 0
-58 263 -150 0
-59 60 0
-59 155 0
59 -155 -60 0
60 -61 0
60 -62 0
-60 62 61 0
-61 255 0
-61 256 0
61 -256 -255 0
62 -63 0
62 -64 0
-62 64 63 0
-63 259 0
-63 260 0
63 -260 -259 0
64 -65 0
64 -66 0
-64 66 65 0
-65 264 0
-65 265 0
65 -265 -264 0
-66 268 0
-66 269 0
66 -269 -268 0
-67 0
68 154 0
68 -69 0
-68 69 -154 0
68 0
-69 -121 0
-69 70 0
69 -70 121 0
-70 -123 0
-70 71 0
70 -71 123 0
-71 -124 0
-71 72 0
71 -72 124 0
-72 -125 0
-72 73 0
72 -73 125 0
-73 -138 0
-73 74 0
73 -74 138 0
-74 -140 0
-74 75 0
74 -75 140 0
-75 -141 0
-75 -142 0
75 142 141 0
76 154 0
76 -77 0
-76 77 -154 0
76 0
-77 78 0
-77 92 0
77 -92 -78 0
78 -79 0
78 -81 0
-78 81 79 0
-79 80 0
-79 143 0
79 -143 -80 0
-80 -144 0
-80 84 0
80 -84 144 0
81 -82 0
81 -85 0
-81 85 82 0
-82 83 0
-82 144 0
82 -144 -83 0
-83 -143 0
-83 84 0
83 -84 143 0
-84 -145 0
-84 -146 0
84 146 145 0
85 -86 0
85 -89 0
-85 89 86 0
-86 87 0
-86 145 0
86 -145 -87 0
-87 -143 0
-87 88 0
87 -88 143 0
-88 -144 0
-88 -146 0
88 146 144 0
-89 90 0
-89 146 0
89 -146 -90 0
-90 -143 0
-90 91 0
90 -91 143 0
-91 -144 0
-91 -145 0
91 145 144 0
92 -93 0
92 -95 0
-92 95 93 0
-93 94 0
-93 147 0
93 -147 -94 0
-94 -148 0
-94 98 0
94 -98 148 0
95 -96 0
95 -99 0
-95 99 96 0
-96 97 0
-96 148 0
96 -148 -97 0
-97 -147 0
-97 98 0
97 -98 147 0
-98 -149 0
-98 -150 0
98 150 149 0
99 -100 0
99 -103 0
-99 103 100 0
-100 101 0
-100 149 0
100 -149 -101 0
-101 -147 0
-101 102 0
101 -102 147 0
-102 -148 0
-102 -150 0
102 150 148 0
-103 104 0
-103 150 0
103 -150 -104 0
-104 -147 0
-104 105 0
104 -105 147 0
-105 -148 0
-105 -149 0
105 149 148 0
106 155 0
106 -107 0
-106 107 -155 0
106 0
-107 108 0
-107 126 0
107 -126 -108 0
108 -109 0
108 -111 0
-108 111 109 0
-109 110 0
-109 121 0
109 -121 -110 0
-110 -123 0
-110 114 0
110 -114 123 0
111 -112 0
111 -115 0
-111 115 112 0
-112 113 0
-112 123 0
112 -123 -113 0
-113 -121 0
-113 114 0
113 -114 121 0
-114 -124 0
-114 -125 0
114 125 124 0
115 -116 0
115 -119 0
-115 119 116 0
-116 117 0
-116 124 0
116 -124 -117 0
-117 -121 0
-117 118 0
117 -118 121 0
-118 -123 0
-118 -125 0
118 125 123 0
-119 120 0
-119 125 0
119 -125 -120 0
-120 -121 0
-120 122 0
120 -122 121 0
-122 -123 0
-122 -124 0
122 124 123 0
-126 77 0
-126 127 0
126 -127 -77 0
127 -128 0
127 -129 0
-127 129 128 0
-128 74 0
-128 138 0
128 -138 -74 0
129 -130 0
129 -132 0
-129 132 130 0
-130 131 0
-130 140 0
130 -140 -131 0
-131 -138 0
-131 75 0
131 -75 138 0
132 -133 0
132 -136 0
-132 136 133 0
-133 134 0
-133 141 0
133 -141 -134 0
-134 -138 0
-134 135 0
134 -135 138 0
-135 -140 0
-135 -142 0
135 142 140 0
-136 137 0
-136 142 0
136 -142 -137 0
-137 -138 0
-137 139 0
137 -139 138 0
-139 -140 0
-139 -141 0
139 141 140 0
151 -152 0
151 -153 0
-151 153 152 0
151 0
-152 -155 0
-152 154 0
152 -154 155 0
-153 -154 0
-153 155 0
153 -155 154 0
156 272 0
156 263 0
-156 -263 -272 0
156 0
157 288 0
157 -158 0
-157 158 -288 0
157 0
-158 -272 0
-158 -263 0
158 263 272 0
159 255 0
159 251 0
-159 -251 -255 0
159 0
160 259 0
160 -161 0
-160 161 -259 0
160 0
-161 -255 0
-161 -251 0
161 251 255 0
162 264 0
162 -163 0
-162 163 -264 0
162 0
-163 -251 0
-163 164 0
163 -164 251 0
-164 -255 0
-164 -259 0
164 259 255 0
165 268 0
165 -166 0
-165 166 -268 0
165 0
-166 -251 0
-166 167 0
166 -167 251 0
-167 -255 0
-167 168 0
167 -168 255 0
-168 -259 0
-168 -264 0
168 264 259 0
169 273 0
169 -170 0
-169 170 -273 0
169 0
-170 -251 0
-170 171 0
170 -171 251 0
-171 -255 0
-171 172 0
171 -172 255 0
-172 -259 0
-172 173 0
172 -173 259 0
-173 -264 0
-173 -268 0
173 268 264 0
174 277 0
174 -175 0
-174 175 -277 0
174 0
-175 -251 0
-175 176 0
175 -176 251 0
-176 -255 0
-176 177 0
176 -177 255 0
-177 -259 0
-177 178 0
177 -178 259 0
-178 -264 0
-178 179 0
178 -179 264 0
-179 -268 0
-179 -273 0
179 273 268 0
180 281 0
180 -181 0
-180 181 -281 0
180 0
-181 -251 0
-181 182 0
181 -182 251 0
-182 -255 0
-182 183 0
182 -183 255 0
-183 -259 0
-183 184 0
183 -184 259 0
-184 -264 0
-184 185 0
184 -185 264 0
-185 -268 0
-185 186 0
185 -186 268 0
-186 -273 0
-186 -277 0
186 277 273 0
187 285 0
187 -188 0
-187 188 -285 0
187 0
-188 -251 0
-188 189 0
188 -189 251 0
-189 -255 0
-189 190 0
189 -190 255 0
-190 -259 0
-190 191 0
190 -191 259 0
-191 -264 0
-191 192 0
191 -192 264 0
-192 -268 0
-192 193 0
192 -193 268 0
-193 -273 0
-193 194 0
193 -194 273 0
-194 -277 0
-194 -281 0
194 281 277 0
195 289 0
195 -196 0
-195 196 -289 0
195 0
-196 -251 0
-196 197 0
196 -197 251 0
-197 -255 0
-197 198 0
197 -198 255 0
-198 -259 0
-198 199 0
198 -199 259 0
-199 -264 0
-199 200 0
199 -200 264 0
-200 -268 0
-200 201 0
200 -201 268 0
-201 -273 0
-201 202 0
201 -202 273 0
-202 -277 0
-202 203 0
202 -203 277 0
-203 -281 0
-203 -285 0
203 285 281 0
204 256 0
204 252 0
-204 -252 -256 0
204 0
205 260 0
205 -206 0
-205 206 -260 0
205 0
-206 -256 0
-206 -252 0
206 252 256 0
207 265 0
207 -208 0
-207 208 -265 0
207 0
-208 -252 0
-208 209 0
208 -209 252 0
-209 -256 0
-209 -260 0
209 260 256 0
210 269 0
210 -211 0
-210 211 -269 0
210 0
-211 -252 0
-211 212 0
211 -212 252 0
-212 -256 0
-212 213 0
212 -213 256 0
-213 -260 0
-213 -265 0
213 265 260 0
214 274 0
214 -215 0
-214 215 -274 0
214 0
-215 -252 0
-215 216 0
215 -216 252 0
-216 -256 0
-216 217 0
216 -217 256 0
-217 -260 0
-217 218 0
217 -218 260 0
-218 -265 0
-218 -269 0
218 269 265 0
219 278 0
219 -220 0
-219 220 -278 0
219 0
-220 -252 0
-220 221 0
220 -221 252 0
-221 -256 0
-221 222 0
221 -222 256 0
-222 -260 0
-222 223 0
222 -223 260 0
-223 -265 0
-223 224 0
223 -224 265 0
-224 -269 0
-224 -274 0
224 274 269 0
225 282 0
225 -226 0
-225 226 -282 0
225 0
-226 -252 0
-226 227 0
226 -227 252 0
-227 -256 0
-227 228 0
227 -228 256 0
-228 -260 0
-228 229 0
228 -229 260 0
-229 -265 0
-229 230 0
229 -230 265 0
-230 -269 0
-230 231 0
230 -231 269 0
-231 -274 0
-231 -278 0
231 278 274 0
232 286 0
232 -233 0
-232 233 -286 0
232 0
-233 -252 0
-233 234 0
233 -234 252 0
-234 -256 0
-234 235 0
234 -235 256 0
-235 -260 0
-235 236 0
235 -236 260 0
-236 -265 0
-236 237 0
236 -237 265 0
-237 -269 0
-237 238 0
237 -238 269 0
-238 -274 0
-238 239 0
238 -239 274 0
-239 -278 0
-239 -282 0
239 282 278 0
240 290 0
240 -241 0
-240 241 -290 0
240 0
-241 -252 0
-241 242 0
241 -242 252 0
-242 -256 0
-242 243 0
242 -243 256 0
-243 -260 0
-243 244 0
243 -244 260 0
-244 -265 0
-244 245 0
244 -245 265 0
-245 -269 0
-245 246 0
245 -246 269 0
-246 -274 0
-246 247 0
246 -247 274 0
-247 -278 0
-247 248 0
247 -248 278 0
-248 -282 0
-248 -286 0
248 286 282 0
249 -250 0
249 -253 0
-249 253 250 0
249 0
-250 50 0
-250 272 0
250 -272 -50 0
253 -254 0
253 -257 0
-253 257 254 0
-254 61 0
-254 263 0
254 -263 -61 0
257 -258 0
257 -261 0
-257 261 258 0
-258 63 0
-258 263 0
258 -263 -63 0
261 -262 0
261 -266 0
-261 266 262 0
-262 65 0
-262 263 0
262 -263 -65 0
266 -267 0
266 -270 0
-266 270 267 0
-267 66 0
-267 288 0
267 -288 -66 0
270 -271 0
270 -275 0
-270 275 271 0
-271 51 0
-271 272 0
271 -272 -51 0
275 -276 0
275 -279 0
-275 279 276 0
-276 38 0
-276 288 0
276 -288 -38 0
279 -280 0
279 -283 0
-279 283 280 0
-280 26 0
-280 288 0
280 -288 -26 0
283 -284 0
283 -287 0
-283 287 284 0
-284 27 0
-284 288 0
284 -288 -27 0
-287 39 0
-287 288 0
287 -288 -39 0
